    pair_style  hybrid  lj/cut/coul/long  10.0
